Optimal - objective value 94.00000000
      0 x_0                    1                      27
      1 x_1                    0                      20
      2 x_2                    0                      29
      3 x_3                    1                      13
      4 x_4                    1                      29
      5 x_5                    0                      22
      6 x_6                    0                       9
      7 x_7                    1                      25
      8 x_8                    0                       9
Optimal - objective value 94.00000000
      0 x_0                    1                      27
      1 x_1                    0                      20
      2 x_2                    0                      29
      3 x_3                    1                      13
      4 x_4                    1                      29
      5 x_5                    0                      22
      6 x_6                    0                       9
      7 x_7                    1                      25
      8 x_8                    0                       9
